63 61 60 59 81 80 79 78 88 87 90 89 93 92 91 85 86 82 57 58 56 55 83 84 51 50 52 53 54 49 48 47 46 45 44 43 42 39 41 40 38 37 36 35 34 33 32 30 31 29 28 27 26 25 24 21 22 23 12 13 14 15 16 11 10 9 7 8 17 18 19 20 568 569 570 474 473 472 471 495 494 524 525 493 492 491 490 529 528 511 510 509 513 512 527 526 523 521 522 514 515 516 517 520 518 519 497 498 503 502 501 500 499 452 453 451 450 448 447 445 444 443 442 446 449 441 440 439 454 455 456 457 458 459 460 461 462 463 464 465 496 470 469 468 467 466 571 573 572 6 5 0 4 1 2 3 437 438 436 435 434 433 432 430 431 429 428 427 426 425 424 423 422 421 420 419 417 418 410 411 412 356 355 354 353 413 414 416 415 352 351 350 347 348 349 357 358 359 360 361 362 363 364 346 345 344 343 341 340 339 338 337 336 335 334 283 284 285 286 287 280 281 282 279 278 277 276 290 289 288 333 332 331 330 342 365 368 369 370 367 366 329 328 327 326 325 324 323 372 373 374 375 395 396 371 398 397 399 400 401 402 403 404 405 406 407 408 409 384 383 382 386 385 387 388 389 390 381 392 391 393 394 376 379 380 378 377 315 314 316 322 321 320 319 317 318 306 304 303 307 305 313 312 311 310 309 308 505 504 506 507 508 302 301 300 299 298 297 296 295 294 270 293 291 292 275 274 273 272 271 269 268 267 266 265 264 263 262 258 259 261 260 257 256 255 253 254 252 251 250 249 248 241 242 243 244 245 247 246 238 239 240 237 236 235 234 232 233 530 531 489 532 533 488 534 231 230 229 228 227 189 225 226 190 191 192 193 219 218 220 221 222 224 223 217 216 215 214 213 212 211 210 209 205 206 207 208 203 204 202 201 200 199 198 197 196 195 194 184 183 185 186 182 179 181 180 169 171 170 172 173 174 175 176 177 178 187 188 540 538 539 537 536 535 487 486 485 484 483 482 481 480 479 478 477 476 475 567 566 565 564 563 562 561 560 549 548 551 550 559 558 557 556 555 554 553 552 101 102 100 99 98 97 94 96 95 118 120 121 122 124 125 126 127 128 116 115 117 106 105 104 103 547 546 545 544 543 541 542 107 108 109 110 111 114 112 113 161 162 168 163 167 166 164 165 154 160 155 156 159 158 157 153 146 145 144 143 142 147 148 152 149 150 151 141 140 139 136 135 134 133 132 131 130 129 137 138 69 70 68 67 66 65 72 71 123 119 73 74 75 77 76 64 62